(set-logic UF)
(declare-sort Set 0)
(declare-sort Elem 0)
(declare-fun member (Elem Set) Bool)
(declare-fun subset (Set Set) Bool)
(declare-fun seteq (Set Set) Bool)
(declare-fun union (Set Set) Set)
(declare-fun intersection (Set Set) Set)
(declare-fun difference (Set Set) Set)
(declare-fun a () Set)
(declare-fun b () Set)
(declare-fun c () Set)
(assert (not (not (forall ((?x Elem)) (or (not (member ?x (intersection a (union b c)))) (member ?x (union (intersection a b) (intersection a c))))))))
(assert (or (subset (intersection a (union b c)) (union (intersection a b) (intersection a c))) (not (forall ((?x Elem)) (or (not (member ?x (intersection a (union b c)))) (member ?x (union (intersection a b) (intersection a c)))))) (not (or (subset (intersection a (union b c)) (union (intersection a b) (intersection a c))) (not (forall ((?x Elem)) (or (not (member ?x (intersection a (union b c)))) (member ?x (union (intersection a b) (intersection a c))))))))))
(assert (not (subset (intersection a (union b c)) (union (intersection a b) (intersection a c)))))
(assert (or (subset (intersection a (union b c)) (union (intersection a b) (intersection a c))) (not (forall ((?x Elem)) (or (not (member ?x (intersection a (union b c)))) (member ?x (union (intersection a b) (intersection a c))))))))
(check-sat)
(exit)
